52	0

0	3	2	3	4
9	1	6
2	2	5	7
7	2	5	7
2	1	6
1	1	8
5	3	10	11	12
1	4	9	10	11	12
5	1	13
3	1	13
1	1	13
8	2	15	18
1	1	14
9	2	15	18
1	1	16
1	3	17	19	21
6	1	20
5	2	19	21
2	2	20	22
6	1	23
7	1	23
7	1	23
5	2	24	26
4	1	25
1	2	27	29
10	1	27
3	1	28
1	2	30	31
10	2	31	33
3	2	32	33
9	1	32
1	2	34	36
9	2	34	36
1	1	35
5	2	37	38
6	2	37	38
3	2	39	40
8	1	39
2	1	41
8	1	42
7	1	42
10	1	43
8	1	44
5	1	45
1	1	46
2	1	47
1	1	48
9	1	49
9	1	50
2	1	51
8	1	52
0	0
